solution status: optimal solution found
objective value:                           28502.0026
y#1                                                 1 	(obj:5700)
y#2                                                 1 	(obj:5700)
y#6                                                 1 	(obj:5700)
y#9                                                 1 	(obj:5700)
y#10                                                1 	(obj:5700)
x#1#1                                               1 	(obj:0.05304)
x#2#10                                              1 	(obj:0.06392)
x#3#2                                               1 	(obj:0.02686)
x#4#6                                               1 	(obj:0.04607)
x#5#9                                               1 	(obj:0.03519)
x#6#2                                               1 	(obj:0.08109)
x#7#2                                               1 	(obj:0.01887)
x#8#6                                               1 	(obj:0.07667)
x#9#9                                               1 	(obj:0.0391)
x#10#2                                              1 	(obj:0.02261)
x#11#6                                              1 	(obj:0.03111)
x#12#6                                              1 	(obj:0.02176)
x#13#10                                             1 	(obj:0.04522)
x#14#2                                              1 	(obj:0.08024)
x#15#2                                              1 	(obj:0.03808)
x#16#1                                              1 	(obj:0.02618)
x#17#2                                              1 	(obj:0.02227)
x#18#2                                              1 	(obj:0.04199)
x#19#6                                              1 	(obj:0.02023)
x#20#10                                             1 	(obj:0.0459)
x#21#1                                              1 	(obj:0.00765)
x#22#10                                             1 	(obj:0.03383)
x#23#1                                              1 	(obj:0.05593)
x#24#10                                             1 	(obj:0.01207)
x#25#6                                              1 	(obj:0.02992)
x#26#10                                             1 	(obj:0.02414)
x#27#6                                              1 	(obj:0.02499)
x#28#2                                              1 	(obj:0.03383)
x#29#6                                              1 	(obj:0.01955)
x#30#9                                              1 	(obj:0.02057)
x#31#6                                              1 	(obj:0.07106)
x#32#6                                              1 	(obj:0.04692)
x#33#2                                              1 	(obj:0.0459)
x#34#9                                              1 	(obj:0.02788)
x#35#1                                              1 	(obj:0.03944)
x#36#1                                              1 	(obj:0.02686)
x#37#1                                              1 	(obj:0.01955)
x#38#9                                              1 	(obj:0.034)
x#39#9                                              1 	(obj:0.03264)
x#40#2                                              1 	(obj:0.01581)
x#41#9                                              1 	(obj:0.01258)
x#42#1                                              1 	(obj:0.0952)
x#43#10                                             1 	(obj:0.02669)
x#44#9                                              1 	(obj:0.03077)
x#45#2                                              1 	(obj:0.03043)
x#46#6                                              1 	(obj:0.03536)
x#47#9                                              1 	(obj:0.04012)
x#48#1                                              1 	(obj:0.00986)
x#49#10                                             1 	(obj:0.02805)
x#50#1                                              1 	(obj:0.07157)
x#51#9                                              1 	(obj:0.0357)
x#52#10                                             1 	(obj:0.02142)
x#53#1                                              1 	(obj:0.0068)
x#54#9                                              1 	(obj:0.03859)
x#55#1                                              1 	(obj:0.04063)
x#56#10                                             1 	(obj:0.01989)
